presolving:
(round 1, fast)       131 del vars, 0 del conss, 0 add conss, 0 chg bounds, 0 chg sides, 0 chg coeffs, 0 upgd conss, 0 impls, 260 clqs
(round 2, exhaustive) 131 del vars, 0 del conss, 0 add conss, 0 chg bounds, 0 chg sides, 0 chg coeffs, 260 upgd conss, 0 impls, 260 clqs
   (0.0s) probing: 51/16770 (0.3%) - 0 fixings, 0 aggregations, 0 implications, 0 bound changes
   (0.0s) probing aborted: 50/50 successive totally useless probings
   Deactivated symmetry handling methods, since SCIP was built without symmetry detector (SYM=none).
presolving (3 rounds: 3 fast, 2 medium, 2 exhaustive):
 131 deleted vars, 0 deleted constraints, 0 added constraints, 0 tightened bounds, 0 added holes, 0 changed sides, 0 changed coefficients
 0 implications, 260 cliques
presolved problem has 16899 variables (16770 bin, 0 int, 0 impl, 129 cont) and 16772 constraints
    260 constraints of type <setppc>
  16512 constraints of type <linear>
Presolving Time: 1.00

 time | node  | left  |LP iter|LP it/n|mem/heur|mdpt |vars |cons |rows |cuts |sepa|confs|strbr|  dualbound   | primalbound  |  gap   | compl. 
p 1.0s|     1 |     0 |    78 |     - | vbounds|   0 |  16k|  16k|  16k|   0 |  0 |   4 |   0 | 0.000000e+00 | 4.776164e+04 |    Inf | unknown
  1.0s|     1 |     0 |   475 |     - |   183M |   0 |  16k|  16k|  16k|   0 |  0 |   4 |   0 | 4.394262e+03 | 4.776164e+04 | 986.91%| unknown
  2.0s|     1 |     0 |   602 |     - |   188M |   0 |  16k|  16k|  16k| 102 |  1 |   4 |   0 | 4.896828e+03 | 4.776164e+04 | 875.36%| unknown
  2.0s|     1 |     0 |   662 |     - |   191M |   0 |  16k|  16k|  16k| 136 |  2 |   4 |   0 | 5.072252e+03 | 4.776164e+04 | 841.63%| unknown
  2.0s|     1 |     0 |   694 |     - |   194M |   0 |  16k|  16k|  16k| 141 |  3 |   4 |   0 | 5.106693e+03 | 4.776164e+04 | 835.28%| unknown
  3.0s|     1 |     0 |   786 |     - |   196M |   0 |  16k|  16k|  16k| 183 |  4 |   4 |   0 | 5.486977e+03 | 4.776164e+04 | 770.45%| unknown
  3.0s|     1 |     0 |   856 |     - |   199M |   0 |  16k|  16k|  16k| 210 |  5 |   4 |   0 | 5.515453e+03 | 4.776164e+04 | 765.96%| unknown
  4.0s|     1 |     0 |   904 |     - |   203M |   0 |  16k|  16k|  16k| 227 |  6 |   4 |   0 | 5.551655e+03 | 4.776164e+04 | 760.31%| unknown
  4.0s|     1 |     0 |   921 |     - |   204M |   0 |  16k|  16k|  17k| 237 |  7 |   4 |   0 | 5.551655e+03 | 4.776164e+04 | 760.31%| unknown
  4.0s|     1 |     0 |   970 |     - |   206M |   0 |  16k|  16k|  17k| 251 |  9 |   4 |   0 | 5.553210e+03 | 4.776164e+04 | 760.07%| unknown
  5.0s|     1 |     0 |  1006 |     - |   209M |   0 |  16k|  16k|  17k| 266 | 10 |   4 |   0 | 5.559451e+03 | 4.776164e+04 | 759.11%| unknown
  5.0s|     1 |     0 |  1049 |     - |   211M |   0 |  16k|  16k|  17k| 288 | 11 |   4 |   0 | 5.562568e+03 | 4.776164e+04 | 758.63%| unknown
  6.0s|     1 |     0 |  1081 |     - |   213M |   0 |  16k|  16k|  17k| 309 | 12 |   4 |   0 | 5.562568e+03 | 4.776164e+04 | 758.63%| unknown
  6.0s|     1 |     0 |  1166 |     - |   215M |   0 |  16k|  16k|  17k| 323 | 13 |   4 |   0 | 5.563480e+03 | 4.776164e+04 | 758.48%| unknown
  6.0s|     1 |     0 |  1198 |     - |   216M |   0 |  16k|  16k|  17k| 344 | 14 |   4 |   0 | 5.565033e+03 | 4.776164e+04 | 758.25%| unknown
 time | node  | left  |LP iter|LP it/n|mem/heur|mdpt |vars |cons |rows |cuts |sepa|confs|strbr|  dualbound   | primalbound  |  gap   | compl. 
  7.0s|     1 |     0 |  1223 |     - |   218M |   0 |  16k|  16k|  17k| 358 | 15 |   4 |   0 | 5.586385e+03 | 4.776164e+04 | 754.96%| unknown
  8.0s|     1 |     0 |  1298 |     - |   221M |   0 |  16k|  16k|  17k| 368 | 16 |   4 |   0 | 5.623692e+03 | 4.776164e+04 | 749.29%| unknown
  8.0s|     1 |     0 |  1315 |     - |   222M |   0 |  16k|  16k|  17k| 374 | 17 |   4 |   0 | 5.630108e+03 | 4.776164e+04 | 748.33%| unknown
  8.0s|     1 |     0 |  1366 |     - |   224M |   0 |  16k|  16k|  17k| 385 | 18 |   4 |   0 | 5.640478e+03 | 4.776164e+04 | 746.77%| unknown
  8.0s|     1 |     0 |  1423 |     - |   226M |   0 |  16k|  16k|  17k| 420 | 19 |   4 |   0 | 5.643615e+03 | 4.776164e+04 | 746.30%| unknown
  9.0s|     1 |     0 |  1448 |     - |   229M |   0 |  16k|  16k|  17k| 441 | 20 |   4 |   0 | 5.650700e+03 | 4.776164e+04 | 745.23%| unknown
 10.0s|     1 |     0 |  1486 |     - |   231M |   0 |  16k|  16k|  17k| 450 | 21 |   4 |   0 | 5.651533e+03 | 4.776164e+04 | 745.11%| unknown
 10.0s|     1 |     0 |  1491 |     - |   231M |   0 |  16k|  16k|  17k| 455 | 22 |   4 |   0 | 5.651533e+03 | 4.776164e+04 | 745.11%| unknown
 10.0s|     1 |     0 |  1492 |     - |   231M |   0 |  16k|  16k|  17k| 456 | 23 |   4 |   0 | 5.651533e+03 | 4.776164e+04 | 745.11%| unknown
 10.0s|     1 |     0 |  1497 |     - |   231M |   0 |  16k|  16k|  17k| 460 | 24 |   4 |   0 | 5.651533e+03 | 4.776164e+04 | 745.11%| unknown
 11.0s|     1 |     0 |  1499 |     - |   231M |   0 |  16k|  16k|  17k| 462 | 25 |   4 |   0 | 5.651533e+03 | 4.776164e+04 | 745.11%| unknown
 11.0s|     1 |     0 |  1504 |     - |   231M |   0 |  16k|  16k|  17k| 468 | 26 |   4 |   0 | 5.651533e+03 | 4.776164e+04 | 745.11%| unknown
 12.0s|     1 |     0 |  1505 |     - |   231M |   0 |  16k|  16k|  16k| 469 | 27 |   4 |   0 | 5.651533e+03 | 4.776164e+04 | 745.11%| unknown
 12.0s|     1 |     0 |  1513 |     - |   231M |   0 |  16k|  16k|  16k| 475 | 28 |   4 |   0 | 5.651533e+03 | 4.776164e+04 | 745.11%| unknown
 13.0s|     1 |     0 |  1515 |     - |   231M |   0 |  16k|  16k|  16k| 477 | 29 |   4 |   0 | 5.651533e+03 | 4.776164e+04 | 745.11%| unknown
 time | node  | left  |LP iter|LP it/n|mem/heur|mdpt |vars |cons |rows |cuts |sepa|confs|strbr|  dualbound   | primalbound  |  gap   | compl. 
 13.0s|     1 |     0 |  1523 |     - |   231M |   0 |  16k|  16k|  17k| 485 | 30 |   4 |   0 | 5.651533e+03 | 4.776164e+04 | 745.11%| unknown
 13.0s|     1 |     0 |  1529 |     - |   231M |   0 |  16k|  16k|  17k| 491 | 31 |   4 |   0 | 5.651533e+03 | 4.776164e+04 | 745.11%| unknown
L34.0s|     1 |     0 |  8259 |     - |    alns|   0 |  16k|  16k|  17k| 491 | 32 |   7 |   0 | 5.651533e+03 | 4.499498e+04 | 696.16%| unknown
 34.0s|     1 |     0 |  8259 |     - |   234M |   0 |  16k|  16k|  17k| 491 | 32 |   7 |   0 | 5.651533e+03 | 4.499498e+04 | 696.16%| unknown
 34.0s|     1 |     0 |  8261 |     - |   234M |   0 |  16k|  16k|  17k| 493 | 33 |   7 |   0 | 5.651533e+03 | 4.499498e+04 | 696.16%| unknown
 55.0s|     1 |     2 |  8261 |     - |   234M |   0 |  16k|  16k|  17k| 493 | 34 |   7 |  48 | 5.651678e+03 | 4.499498e+04 | 696.13%| unknown

SCIP Status        : solving was interrupted [time limit reached]
Solving Time (sec) : 600.00
Solving Nodes      : 65
Primal Bound       : +4.49949807177321e+04 (2 solutions)
Dual Bound         : +5.65171939846919e+03
Gap                : 696.13 %
Trying to solve problem with MTZ Solver Method...
Starting Solver, time limit setted to 10 minutes
Route:  [[0, 107], [1, 68], [2, 65], [3, 87], [4, 11], [5, 123], [6, 7], [7, 46], [8, 28], [9, 10], [10, 81], [11, 3], [12, 39], [13, 30], [14, 5], [15, 40], [16, 17], [17, 18], [18, 50], [19, 52], [20, 101], [21, 6], [22, 41], [23, 32], [24, 57], [25, 26], [26, 49], [27, 120], [28, 56], [29, 12], [30, 2], [31, 53], [32, 35], [33, 63], [34, 14], [35, 36], [36, 37], [37, 66], [38, 15], [39, 55], [40, 84], [41, 71], [42, 43], [43, 22], [44, 96], [45, 44], [46, 16], [47, 13], [48, 103], [49, 42], [50, 128], [51, 70], [52, 51], [53, 54], [54, 86], [55, 4], [56, 27], [57, 21], [58, 59], [59, 60], [60, 69], [61, 45], [62, 64], [63, 106], [64, 48], [65, 82], [66, 95], [67, 29], [68, 34], [69, 31], [70, 93], [71, 67], [72, 19], [73, 100], [74, 62], [75, 9], [76, 61], [77, 78], [78, 73], [79, 33], [80, 24], [81, 20], [82, 25], [83, 77], [84, 23], [85, 88], [86, 91], [87, 1], [88, 89], [89, 90], [90, 38], [91, 92], [92, 102], [93, 79], [94, 8], [95, 47], [96, 97], [97, 98], [98, 99], [99, 75], [100, 72], [101, 94], [102, 83], [103, 80], [104, 116], [105, 76], [106, 85], [107, 108], [108, 109], [109, 110], [110, 117], [111, 112], [112, 113], [113, 114], [114, 0], [115, 122], [116, 125], [117, 105], [118, 126], [119, 115], [120, 121], [121, 104], [122, 74], [123, 124], [124, 129], [125, 58], [126, 127], [127, 119], [128, 111], [129, 118]]
An Otimal Solution was found, yay!
Objective value: 44995.0
Problem solved in 18073 iterations
Problem solved in 65 nodes
Final Route Configuration succesfully created at:
data/routes/ch130.csv
